nApps = 209
nRes = 9
nActs = 430
nNetworks = 6

assignmentToResources = [1,1,3,3,2,1,3,2,2,3,3,2,2,3,2,2,2,3,3,1,2,3,2,3,3,3,1,2,1,3,3,2,1,3,2,2,3,2,1,3,3,1,1,1,1,1,2,1,3,1,2,3,3,3,1,2,2,3,3,3,1,3,3,2,1,3,1,3,1,1,3,1,3,3,2,2,1,3,3,1,1,1,1,1,1,3,3,1,3,1,1,3,1,1,1,3,1,3,1,2,4,4,4,4,4,4,6,6,6,6,6,6,5,5,5,5,4,6,6,5,5,5,6,6,6,6,6,5,5,5,5,5,6,6,5,5,5,5,5,5,5,5,5,5,5,5,4,4,4,4,4,5,5,6,6,5,6,6,6,6,6,6,4,5,5,5,4,6,6,6,6,5,5,5,5,5,5,5,4,4,4,4,4,4,4,6,6,4,4,4,4,4,4,4,4,4,4,5,5,5,5,4,6,6,4,6,6,6,6,6,5,5,6,5,6,4,4,4,4,4,6,6,5,5,5,4,4,6,4,4,4,4,4,4,6,4,4,4,4,4,4,5,7,4,9,4,8,5,7,6,7,4,9,5,7,5,9,6,7,6,8,4,9,6,7,4,8,5,7,4,8,4,9,6,7,6,7,4,9,5,9,5,7,4,9,4,9,6,8,9,8,9,8,9,9,8,8,7,7,8,7,9,7,7,7,8,7,8,7,9,9,7,7,7,7,7,9,7,7,7,9,8,8,9,7,9,9,7,7,7,7,7,9,7,9,9,9,9,9,9,9,7,7,7,9,8,7,7,8,8,7,9,9,9,7,9,8,8,7,7,9,7,7,7,7,9,9,9,9,9,9,9,9,8,7,7,8,9,9,9,9,8,8,9,9,8,9,7,7,9,8,8,7,8,7,7,7,7,7,7,9,7,9,8,9,9,8,9,9,7,8,9,9,9,8,8,7,9,9,9,9,9,9,7,8,8,9,9,8,8];

processingTimes = [96,128,128,56,64,64,128,168,168,152,128,96,168,168,48,136,136,144,136,112,128,136,120,112,136,80,144,128,120,56,80,128,120,136,112,104,72,144,144,120,152,136,120,104,136,64,152,152,128,64,72,120,104,160,168,56,80,48,128,88,120,104,104,96,80,168,128,72,104,104,80,120,112,160,104,168,152,112,104,112,128,64,88,104,112,160,120,120,168,48,128,120,80,120,160,128,144,152,80,104,500,3,3,3,4,4,5,500,1000,4,4,4,3,3,3,500,3,5,500,3,500,3,3,1000,13,500,13,3,3,3,5,3,4,5,3,3,500,3,3,3,3,3,4,5,4,3,4,4,200,3,200,3,500,3,3,500,4,4,4,500,3,4,23,5,5,4,5,5,500,1000,4,500,3,3,500,500,100,100,3,3,3,4,4,3,3,3,3,3,4,13,4,3,500,3,13,500,9,500,3,3,5,4,3,3,500,4,5,1000,3,4,3,23,4,4,3,3,3,3,7,3,3,3,500,4,4,500,3,1000,3,23,500,4,4,13,4,3,3,5,5,3,3,3,3,4,4,3,3,4,4,4,4,13,13,4,4,23,23,23,23,3,3,3,3,13,13,13,13,3,3,4,4,23,23,3,3,3,3,3,3,4,4,4,4,3,3,7,7,8,8,500,3,3,3,4,4,5,500,1000,4,4,4,3,3,3,500,3,5,500,3,500,3,3,1000,13,500,13,3,3,3,5,3,4,5,3,3,500,3,3,3,3,3,4,5,4,3,4,4,200,3,200,3,500,3,3,500,4,4,4,500,3,4,23,5,5,4,5,5,500,1000,4,500,3,3,500,500,100,100,3,3,3,4,4,3,3,3,3,3,4,13,4,3,500,3,13,500,9,500,3,3,5,4,3,3,500,4,5,1000,3,4,3,23,4,4,3,3,3,3,7,3,3,3,500,4,4,500,3,1000,3,23,500,4,4,13,4,3,3,5,5,3,3];

periods = [10000,20000,20000,20000,10000,1000,10000,20000,10000,100000,5000,20000,10000,10000,20000,10000,10000,100000,20000,2000,100000,20000,10000,20000,100000,100000,100000,20000,20000,20000,50000,10000,50000,20000,100000,20000,2000,1000,10000,20000,10000,10000,100000,20000,10000,100000,20000,10000,100000,100000,10000,10000,20000,100000,100000,20000,100000,10000,100000,10000,10000,20000,20000,100000,20000,20000,20000,10000,1000,10000,50000,20000,50000,1000,10000,1000,20000,20000,10000,20000,10000,10000,10000,5000,20000,20000,20000,100000,100000,20000,10000,10000,100000,100000,100000,2000,10000,10000,20000,10000,10000,10000,20000,20000,20000,20000,20000,20000,20000,20000,20000,20000,10000,10000,10000,10000,1000,10000,10000,20000,10000,10000,100000,100000,100000,5000,5000,20000,20000,20000,20000,10000,10000,10000,20000,20000,20000,20000,20000,20000,10000,10000,10000,10000,10000,10000,2000,2000,2000,2000,2000,100000,100000,20000,20000,10000,20000,20000,20000,100000,100000,100000,100000,20000,20000,20000,20000,20000,50000,50000,50000,10000,100000,20000,20000,20000,1000,1000,10000,10000,10000,10000,10000,10000,10000,20000,20000,10000,100000,100000,100000,20000,20000,10000,10000,10000,100000,20000,20000,20000,20000,10000,100000,100000,100000,10000,20000,20000,20000,100000,20000,100000,20000,100000,20000,1000,1000,1000,1000,10000,50000,50000,10000,1000,1000,5000,20000,20000,20000,10000,10000,100000,100000,100000,2000,10000,10000,10000,10000,20000,20000,10000,10000,10000,10000,10000,10000,20000,20000,20000,20000,100000,100000,100000,100000,100000,100000,100000,100000,10000,10000,10000,10000,10000,10000,10000,10000,10000,10000,10000,10000,100000,100000,100000,100000,100000,100000,100000,100000,100000,100000,20000,20000,20000,20000,50000,50000,20000,20000,10000,10000,20000,20000,20000,20000,20000,20000,20000,20000,20000,20000,10000,10000,10000,10000,1000,10000,10000,20000,10000,10000,100000,100000,100000,5000,5000,20000,20000,20000,20000,10000,10000,10000,20000,20000,20000,20000,20000,20000,10000,10000,10000,10000,10000,10000,2000,2000,2000,2000,2000,100000,100000,20000,20000,10000,20000,20000,20000,100000,100000,100000,100000,20000,20000,20000,20000,20000,50000,50000,50000,10000,100000,20000,20000,20000,1000,1000,10000,10000,10000,10000,10000,10000,10000,20000,20000,10000,100000,100000,100000,20000,20000,10000,10000,10000,100000,20000,20000,20000,20000,10000,100000,100000,100000,10000,20000,20000,20000,100000,20000,100000,20000,100000,20000,1000,1000,1000,1000,10000,50000,50000,10000,1000,1000,5000,20000,20000,20000,10000,10000,100000,100000,100000,2000,10000,10000,10000,10000,20000,20000];

assignmentToClusters = [1,2,3,4,5,6,7,8,9,10,11,12,13,14,15,16,17,18,19,20,10,21,22,23,10,18,18,24,24,4,25,1,25,26,27,28,29,30,31,32,33,16,10,34,16,35,36,37,10,10,16,16,38,18,18,4,10,39,40,41,42,36,43,18,44,45,46,47,48,1,49,4,50,51,16,52,53,24,1,54,55,56,57,58,59,4,60,18,18,61,62,63,64,10,65,66,67,16,68,1,69,70,71,72,73,74,75,76,77,78,79,80,81,82,83,84,85,86,87,88,89,90,91,92,93,94,95,96,97,98,99,100,101,102,103,104,105,106,107,108,109,110,111,112,113,114,115,116,117,118,119,120,121,122,123,124,125,126,127,128,129,130,131,132,133,134,135,136,137,138,139,140,141,142,143,144,145,146,147,148,149,150,151,152,153,154,155,156,157,158,159,160,161,162,163,164,165,166,167,168,169,170,171,172,173,174,175,176,177,178,179,180,181,182,183,184,185,186,187,188,189,190,191,192,193,194,195,196,197,198,199,200,201,202,203,204,205,206,207,208,209,1,1,1,1,1,1,4,4,4,4,10,10,10,10,10,10,10,10,16,16,16,16,16,16,16,16,16,16,16,16,18,18,18,18,18,18,18,18,18,18,24,24,24,24,25,25,36,36,69,70,71,72,73,74,75,76,77,78,79,80,81,82,83,84,85,86,87,88,89,90,91,92,93,94,95,96,97,98,99,100,101,102,103,104,105,106,107,108,109,110,111,112,113,114,115,116,117,118,119,120,121,122,123,124,125,126,127,128,129,130,131,132,133,134,135,136,137,138,139,140,141,142,143,144,145,146,147,148,149,150,151,152,153,154,155,156,157,158,159,160,161,162,163,164,165,166,167,168,169,170,171,172,173,174,175,176,177,178,179,180,181,182,183,184,185,186,187,188,189,190,191,192,193,194,195,196,197,198,199,200,201,202,203,204,205,206,207,208,209];

precedenceAdjList = [[242],[],[],[29],[],[],[],[],[],[24],[],[],[],[],[],[260],[],[272],[],[],[],[],[],[],[252],[53],[274],[],[282],[85],[286],[246],[],[],[],[],[],[],[],[],[],[268],[49],[],[264],[],[288],[],[9,256],[254],[266],[262],[],[],[87],[],[],[],[],[],[],[],[],[],[],[],[],[],[],[0],[],[248,250],[],[],[270],[],[],[284],[244],[],[],[],[],[],[],[],[],[276],[278,280],[],[],[],[],[258],[],[],[],[],[],[],[],[],[],[],[],[],[],[],[],[],[],[],[],[],[],[],[],[],[],[],[],[],[],[],[],[],[],[],[],[],[],[],[],[],[],[],[],[],[],[],[],[],[],[],[],[],[],[],[],[],[],[],[],[],[],[],[],[],[],[],[],[],[],[],[],[],[],[],[],[],[],[],[],[],[],[],[],[],[],[],[],[],[],[],[],[],[],[],[],[],[],[],[],[],[],[],[],[],[],[],[],[],[],[],[],[],[],[],[],[],[],[],[],[],[],[],[],[],[],[],[],[],[],[],[],[],[],[],[],[],[],[],[],[],[],[],[],[],[],[],[],[99],[241],[0],[243],[69],[245],[55],[247],[3],[249],[49],[251],[20],[253],[56],[255],[48],[257],[51],[259],[44],[261],[97],[263],[44],[265],[50],[267],[41],[269],[26],[271],[25],[273],[17],[275],[54],[277],[63],[279],[27],[281],[28],[283],[32],[285],[61],[287],[100],[101],[102],[103],[104],[105],[106],[107],[108],[109],[110],[111],[112],[113],[114],[115],[116],[117],[118],[119],[120],[121],[122],[123],[124],[125],[126],[127],[128],[129],[130],[131],[132],[133],[134],[135],[136],[137],[138],[139],[140],[141],[142],[143],[144],[145],[146],[147],[148],[149],[150],[151],[152],[153],[154],[155],[156],[157],[158],[159],[160],[161],[162],[163],[164],[165],[166],[167],[168],[169],[170],[171],[172],[173],[174],[175],[176],[177],[178],[179],[180],[181],[182],[183],[184],[185],[186],[187],[188],[189],[190],[191],[192],[193],[194],[195],[196],[197],[198],[199],[200],[201],[202],[203],[204],[205],[206],[207],[208],[209],[210],[211],[212],[213],[214],[215],[216],[217],[218],[219],[220],[221],[222],[223],[224],[225],[226],[227],[228],[229],[230],[231],[232],[233],[234],[235],[236],[237],[238],[239],[240]];